qemu/CWE-189-Numeric-Errors/CVE_2013_4148_71f7fe48e10a8437c9d42d859389f37157f59980/solvercveSnippet.smt2
; benchmark generated from python API
(set-info :status unknown)
(declare-fun rdi () (_ BitVec 64))
(declare-fun R () (_ BitVec 32))
(assert
 (let ((?x6 ((_ extract 31 0) rdi)))
 (let (($x71 (= R ?x6)))
 (let (($x46 (bvsge (_ bv64 32) ?x6)))
 (let (($x75 (and $x46 $x71)))
 (let (($x62 (= (_ bv0 32) R)))
 (let (($x58 (bvslt (_ bv64 32) ?x6)))
 (let (($x74 (and $x58 $x62)))
 (let (($x76 (or $x74 $x75)))
 (let (($x79 (not $x76)))
 (let (($x11 (bvule ?x6 (_ bv64 32))))
 (let (($x72 (and $x11 $x71)))
 (let (($x43 (bvugt ?x6 (_ bv64 32))))
 (let (($x67 (and $x43 $x62)))
 (let (($x73 (or $x67 $x72)))
 (let (($x78 (not $x73)))
 (let (($x80 (and $x78 $x79)))
 (let (($x77 (and $x73 $x76)))
 (let (($x81 (or $x77 $x80)))
 (not $x81))))))))))))))))))))
(check-sat)
